NAME : LR1_6_8
TYPE : PDPTW
DIMENSION : 150
EDGE_WEIGHT_TYPE : EXACT_2D
NODE_COORD_SECTION
1 1 0
2 150 0
3 0 0
4 10 0
5 272 2
6 0 1119
7 3 174
8 1105 10
9 166 123
10 10 0
11 293 14
12 0 217
13 24 0
14 479 7
15 0 1081
16 8 247
17 848 10
18 152 29
19 10 419
20 216 -14
21 304 0
22 -9 0
23 0 12
24 592 622
25 13 148
26 37 10
27 291 148
28 10 565
29 241 -37
30 131 0
31 25 0
32 172 17
33 807 837
34 18 266
35 1065 10
36 99 226
37 10 0
38 116 22
39 0 151
40 -9 363
41 0 22
42 0 1147
43 23 17
44 607 10
45 96 86
46 10 0
47 228 -21
48 78 0
49 -5 0
50 0 27
51 0 1065
52 28 16
53 1024 0
54 67 175
55 10 325
56 286 17
57 0 545
58 33 0
59 463 32
60 0 1056
61 33 26
62 1022 0
63 37 14
64 10 0
65 11 -29
66 395 0
67 24 804
68 315 37
69 0 1097
70 38 154
71 1147 10
72 75 191
73 10 475
74 62 -11
75 330 0
76 -5 446
77 0 42
78 0 1139
79 43 99
80 1128 10
81 6 168
82 10 94
83 211 22
84 0 536
85 -17 0
86 0 47
87 0 1140
88 48 268
89 1073 10
90 29 8
91 10 23
92 89 22
93 0 508
94 6 0
95 141 52
96 0 1050
97 53 282
98 886 10
99 90 44
100 10 0
101 7 25
102 0 386
103 -15 0
104 0 57
105 0 1094
106 58 207
107 1055 10
108 289 143
109 10 0
110 194 -20
111 153 0
112 -8 770
113 0 62
114 0 1087
115 63 207
116 1092 10
117 136 50
118 10 0
119 221 -4
120 384 0
121 -26 0
122 0 67
123 0 1028
124 68 206
125 1133 10
126 227 5
127 10 543
128 287 -18
129 236 0
130 23 17
131 586 72
132 726 756
133 73 152
134 1123 10
135 225 192
136 10 0
137 104 -21
138 398 0
139 -13 789
140 0 77
141 0 1107
142 78 106
143 1149 10
144 73 81
145 10 0
146 232 11
147 0 267
148 -22 0
149 0 82
150 0 1094
PICKUP_AND_DELIVERY_SECTION
1 0 0 0 0 0 0
2 0 0 0 0 1206 0
3 0 0 0 0 0 71
4 0 0 0 0 10 10
5 0 0 0 0 80 80
6 0 0 0 0 0 0
7 0 0 0 0 21 21
8 0 0 0 0 119 0
9 0 0 0 0 31 31
10 0 0 0 0 5 5
11 0 0 0 0 998 0
12 0 0 0 0 140 140
13 0 0 0 0 10 10
14 0 0 0 0 203 203
15 0 0 0 0 353 353
16 0 0 0 0 -41 -41
17 0 0 0 0 0 0
18 0 0 0 0 899 899
19 0 0 0 0 10 0
20 0 0 0 0 1105 0
21 0 0 0 0 107 107
22 0 0 0 0 10 10
23 0 0 0 0 270 270
24 0 0 0 0 106 106
25 0 0 0 0 24 24
26 0 0 0 0 515 0
27 0 0 0 0 636 636
28 0 0 0 0 15 0
29 0 0 0 0 797 797
30 0 0 0 0 162 162
31 0 0 0 0 10 10
32 0 0 0 0 254 254
33 0 0 0 0 558 558
34 0 0 0 0 11 11
35 0 0 0 0 555 0
36 0 0 0 0 0 0
37 0 0 0 0 20 20
38 0 0 0 0 1097 0
39 0 0 0 0 110 110
40 0 0 0 0 10 10
41 0 0 0 0 107 107
42 0 0 0 0 103 103
43 0 0 0 0 11 0
44 0 0 0 0 49 0
45 0 0 0 0 0 0
46 0 0 0 0 25 25
47 0 0 0 0 387 387
48 0 0 0 0 100 100
49 0 0 0 0 10 10
50 0 0 0 0 277 277
51 0 0 0 0 0 0
52 0 0 0 0 17 17
53 0 0 0 0 614 0
54 0 0 0 0 0 0
55 0 0 0 0 30 0
56 0 0 0 0 1040 0
57 0 0 0 0 176 176
58 0 0 0 0 10 10
59 0 0 0 0 14 14
60 0 0 0 0 0 0
61 0 0 0 0 16 16
62 0 0 0 0 601 0
63 0 0 0 0 243 243
64 0 0 0 0 35 35
65 0 0 0 0 510 510
66 0 0 0 0 74 74
67 0 0 0 0 10 10
68 0 0 0 0 53 53
69 0 0 0 0 0 0
70 0 0 0 0 21 21
71 0 0 0 0 104 0
72 0 0 0 0 0 0
73 0 0 0 0 40 0
74 0 0 0 0 1080 0
75 0 0 0 0 209 209
76 0 0 0 0 10 10
77 0 0 0 0 149 149
78 0 0 0 0 0 0
79 0 0 0 0 -41 -41
80 0 0 0 0 0 0
81 0 0 0 0 0 0
82 0 0 0 0 45 0
83 0 0 0 0 226 226
84 0 0 0 0 254 254
85 0 0 0 0 10 10
86 0 0 0 0 175 175
87 0 0 0 0 0 0
88 0 0 0 0 22 22
89 0 0 0 0 399 0
90 0 0 0 0 751 751
91 0 0 0 0 50 0
92 0 0 0 0 1135 0
93 0 0 0 0 9 9
94 0 0 0 0 10 10
95 0 0 0 0 294 294
96 0 0 0 0 0 0
97 0 0 0 0 -17 -17
98 0 0 0 0 0 0
99 0 0 0 0 0 0
100 0 0 0 0 55 55
101 0 0 0 0 1026 0
102 0 0 0 0 176 176
103 0 0 0 0 10 10
104 0 0 0 0 243 243
105 0 0 0 0 0 0
106 0 0 0 0 -12 -12
107 0 0 0 0 0 0
108 0 0 0 0 0 0
109 0 0 0 0 60 60
110 0 0 0 0 128 128
111 0 0 0 0 295 295
112 0 0 0 0 10 10
113 0 0 0 0 62 62
114 0 0 0 0 494 494
115 0 0 0 0 -29 -29
116 0 0 0 0 0 0
117 0 0 0 0 0 0
118 0 0 0 0 65 65
119 0 0 0 0 326 326
120 0 0 0 0 208 208
121 0 0 0 0 10 10
122 0 0 0 0 29 29
123 0 0 0 0 571 571
124 0 0 0 0 -30 -30
125 0 0 0 0 0 0
126 0 0 0 0 0 0
127 0 0 0 0 70 0
128 0 0 0 0 1033 0
129 0 0 0 0 151 151
130 0 0 0 0 10 10
131 0 0 0 0 100 100
132 0 0 0 0 429 429
133 0 0 0 0 10 10
134 0 0 0 0 432 0
135 0 0 0 0 0 0
136 0 0 0 0 75 75
137 0 0 0 0 1150 0
138 0 0 0 0 296 296
139 0 0 0 0 10 10
140 0 0 0 0 170 170
141 0 0 0 0 0 0
142 0 0 0 0 21 21
143 0 0 0 0 25 0
144 0 0 0 0 0 0
145 0 0 0 0 80 80
146 0 0 0 0 963 963
147 0 0 0 0 112 112
148 0 0 0 0 10 10
149 0 0 0 0 251 251
150 0 0 0 0 368 368
DEPOT_SECTION
1 
-1
EOF
